TOUR_SECTION
1
93
84
14
53
117
58
106
169
23
31
35
49
42
2
201
122
126
179
7
62
105
9
183
188
159
170
139
83
99
39
162
24
129
22
48
181
16
67
57
104
60
52
186
156
160
198
56
174
138
25
194
94
11
143
46
65
79
90
51
113
8
86
15
66
91
3
125
121
40
195
100
70
151
13
134
33
68
114
164
85
132
45
152
96
187
64
17
101
140
150
109
172
26
74
4
80
118
108
154
123
107
197
148
43
19
32
115
47
120
176
59
89
130
110
73
142
168
185
184
82
177
192
61
6
75
111
131
20
193
44
21
103
72
30
127
165
92
189
12
95
196
191
119
124
171
34
175
55
163
161
5
147
37
136
141
135
128
112
133
29
69
76
146
157
190
158
200
28
199
149
178
137
27
145
41
180
10
116
38
87
167
155
78
173
81
77
50
36
18
97
144
98
88
102
153
54
71
63
182
166
-1
EOF